Ag 
 1.0000000000000000
    29.6999999999999993    0.0000000000000000    0.0000000000000000
     0.0000000000000000   29.6999999999999993    0.0000000000000000
     0.0000000000000000    0.0000000000000000   29.6999999999999993
  25
Cartesian
 13.8250000000000011 14.8499999999999979 14.8499999999999979
 15.8749999999999982 14.8499999999999979 12.7999999999999972
 15.8749999999999982 12.7999999999999972 14.8499999999999979
 15.8749999999999982 16.8999999999999986 14.8499999999999979
 15.8749999999999982 14.8499999999999979 16.8999999999999986
 11.7749999999999986 14.8499999999999979 12.7999999999999972
 13.8250000000000011 16.8999999999999986 12.7999999999999972
 13.8250000000000011 12.7999999999999972 12.7999999999999972
 11.7749999999999986 12.7999999999999972 14.8499999999999979
 13.8250000000000011 12.7999999999999972 16.8999999999999986
 13.8250000000000011 14.8499999999999979 10.7500000000000000
 13.8250000000000011 10.7500000000000000 14.8499999999999979
 17.9249999999999972 14.8499999999999979 14.8499999999999979
 17.9249999999999972 12.7999999999999972 12.7999999999999972
 15.8749999999999982 12.7999999999999972 10.7500000000000000
 15.8749999999999982 10.7500000000000000 12.7999999999999972
 11.7749999999999986 16.8999999999999986 14.8499999999999979
 11.7749999999999986 14.8499999999999979 16.8999999999999986
 13.8250000000000011 16.8999999999999986 16.8999999999999986
 13.8250000000000011 14.8499999999999979 18.9499999999999993
 17.9249999999999972 16.8999999999999986 12.7999999999999972
 17.9249999999999972 14.8499999999999979 10.7500000000000000
 15.8749999999999982 16.8999999999999986 10.7500000000000000
 13.8250000000000011 18.9499999999999993 14.8499999999999979
 15.8749999999999982 18.9499999999999993 12.7999999999999972
