Ag                                      
   1.00000000000000     
    29.6999999999999993    0.0000000000000000    0.0000000000000000
     0.0000000000000000   29.6999999999999993    0.0000000000000000
     0.0000000000000000    0.0000000000000000   29.6999999999999993
   Ag
    25
Direct
  0.4654882154882145  0.5000000000000000  0.5000000000000000
  0.5345117845117855  0.5000000000000000  0.4309764309764290
  0.5345117845117855  0.4309764309764290  0.5000000000000000
  0.5345117845117855  0.5690235690235710  0.5000000000000000
  0.5345117845117855  0.5000000000000000  0.5690235690235710
  0.3964646464646435  0.5000000000000000  0.4309764309764290
  0.4654882154882145  0.5690235690235710  0.4309764309764290
  0.4654882154882145  0.4309764309764290  0.4309764309764290
  0.3964646464646435  0.4309764309764290  0.5000000000000000
  0.4654882154882145  0.4309764309764290  0.5690235690235710
  0.4654882154882145  0.5000000000000000  0.3619528619528651
  0.4654882154882145  0.3619528619528651  0.5000000000000000
  0.6035353535353565  0.5000000000000000  0.5000000000000000
  0.6035353535353565  0.4309764309764290  0.4309764309764290
  0.5345117845117855  0.4309764309764290  0.3619528619528651
  0.5345117845117855  0.3619528619528651  0.4309764309764290
  0.3964646464646435  0.5690235690235710  0.5000000000000000
  0.3964646464646435  0.5000000000000000  0.5690235690235710
  0.4654882154882145  0.5690235690235710  0.5690235690235710
  0.4654882154882145  0.5000000000000000  0.6380471380471349
  0.6035353535353565  0.5690235690235710  0.4309764309764290
  0.6035353535353565  0.5000000000000000  0.3619528619528651
  0.5345117845117855  0.5690235690235710  0.3619528619528651
  0.4654882154882145  0.6380471380471349  0.5000000000000000
  0.5345117845117855  0.6380471380471349  0.4309764309764290
 
  0.00000000E+00  0.00000000E+00  0.00000000E+00
  0.00000000E+00  0.00000000E+00  0.00000000E+00
  0.00000000E+00  0.00000000E+00  0.00000000E+00
  0.00000000E+00  0.00000000E+00  0.00000000E+00
  0.00000000E+00  0.00000000E+00  0.00000000E+00
  0.00000000E+00  0.00000000E+00  0.00000000E+00
  0.00000000E+00  0.00000000E+00  0.00000000E+00
  0.00000000E+00  0.00000000E+00  0.00000000E+00
  0.00000000E+00  0.00000000E+00  0.00000000E+00
  0.00000000E+00  0.00000000E+00  0.00000000E+00
  0.00000000E+00  0.00000000E+00  0.00000000E+00
  0.00000000E+00  0.00000000E+00  0.00000000E+00
  0.00000000E+00  0.00000000E+00  0.00000000E+00
  0.00000000E+00  0.00000000E+00  0.00000000E+00
  0.00000000E+00  0.00000000E+00  0.00000000E+00
  0.00000000E+00  0.00000000E+00  0.00000000E+00
  0.00000000E+00  0.00000000E+00  0.00000000E+00
  0.00000000E+00  0.00000000E+00  0.00000000E+00
  0.00000000E+00  0.00000000E+00  0.00000000E+00
  0.00000000E+00  0.00000000E+00  0.00000000E+00
  0.00000000E+00  0.00000000E+00  0.00000000E+00
  0.00000000E+00  0.00000000E+00  0.00000000E+00
  0.00000000E+00  0.00000000E+00  0.00000000E+00
  0.00000000E+00  0.00000000E+00  0.00000000E+00
  0.00000000E+00  0.00000000E+00  0.00000000E+00
