Ag                                      
   1.00000000000000     
    40.1000000000000014    0.0000000000000000    0.0000000000000000
     0.0000000000000000   40.1000000000000014    0.0000000000000000
     0.0000000000000000    0.0000000000000000   40.1000000000000014
   Ag
   100
Direct
  0.4744389027431453  0.5000000000000000  0.5255610972568547
  0.5255610972568547  0.5000000000000000  0.4744389027431453
  0.5255610972568547  0.4488778054862834  0.5255610972568547
  0.5255610972568547  0.5511221945137166  0.5255610972568547
  0.5255610972568547  0.5000000000000000  0.5766832917705713
  0.4233167082294287  0.5000000000000000  0.4744389027431453
  0.4744389027431453  0.5511221945137166  0.4744389027431453
  0.4744389027431453  0.4488778054862834  0.4744389027431453
  0.4233167082294287  0.4488778054862834  0.5255610972568547
  0.4744389027431453  0.4488778054862834  0.5766832917705713
  0.4744389027431453  0.5000000000000000  0.4233167082294287
  0.4744389027431453  0.3977556109725668  0.5255610972568547
  0.5766832917705713  0.5000000000000000  0.5255610972568547
  0.5766832917705713  0.4488778054862834  0.4744389027431453
  0.5255610972568547  0.4488778054862834  0.4233167082294287
  0.5255610972568547  0.3977556109725668  0.4744389027431453
  0.4233167082294287  0.5511221945137166  0.5255610972568547
  0.4233167082294287  0.5000000000000000  0.5766832917705713
  0.4744389027431453  0.5511221945137166  0.5766832917705713
  0.5766832917705713  0.5511221945137166  0.4744389027431453
  0.5255610972568547  0.5511221945137166  0.4233167082294287
  0.5766832917705713  0.3977556109725668  0.5255610972568547
  0.5766832917705713  0.4488778054862834  0.5766832917705713
  0.5255610972568547  0.3977556109725668  0.5766832917705713
  0.4744389027431453  0.6022443890274332  0.5255610972568547
  0.5255610972568547  0.6022443890274332  0.4744389027431453
  0.6278054862842879  0.4488778054862834  0.5255610972568547
  0.4744389027431453  0.5000000000000000  0.6278054862842879
  0.5255610972568547  0.4488778054862834  0.6278054862842879
  0.5766832917705713  0.6022443890274332  0.5255610972568547
  0.5766832917705713  0.5511221945137166  0.5766832917705713
  0.5255610972568547  0.6022443890274332  0.5766832917705713
  0.5766832917705713  0.5000000000000000  0.6278054862842879
  0.5255610972568547  0.5511221945137166  0.6278054862842879
  0.5766832917705713  0.5000000000000000  0.4233167082294287
  0.6278054862842879  0.5511221945137166  0.5255610972568547
  0.6278054862842879  0.5000000000000000  0.4744389027431453
  0.3721945137157121  0.5000000000000000  0.5255610972568547
  0.3721945137157121  0.4488778054862834  0.4744389027431453
  0.4233167082294287  0.4488778054862834  0.4233167082294287
  0.4233167082294287  0.3977556109725668  0.4744389027431453
  0.4744389027431453  0.3977556109725668  0.4233167082294287
  0.5255610972568547  0.3466334164588503  0.5255610972568547
  0.4744389027431453  0.3466334164588503  0.4744389027431453
  0.6278054862842879  0.5000000000000000  0.5766832917705713
  0.3721945137157121  0.3977556109725668  0.5255610972568547
  0.3721945137157121  0.4488778054862834  0.5766832917705713
  0.4233167082294287  0.3977556109725668  0.5766832917705713
  0.4233167082294287  0.4488778054862834  0.6278054862842879
  0.4744389027431453  0.3977556109725668  0.6278054862842879
  0.4233167082294287  0.3466334164588503  0.5255610972568547
  0.4744389027431453  0.3466334164588503  0.5766832917705713
  0.5255610972568547  0.5000000000000000  0.3721945137157121
  0.4744389027431453  0.4488778054862834  0.3721945137157121
  0.5255610972568547  0.6533665835411497  0.5255610972568547
  0.3721945137157121  0.5511221945137166  0.4744389027431453
  0.3721945137157121  0.5000000000000000  0.4233167082294287
  0.4233167082294287  0.5511221945137166  0.4233167082294287
  0.4233167082294287  0.6022443890274332  0.4744389027431453
  0.4744389027431453  0.6022443890274332  0.4233167082294287
  0.4233167082294287  0.5000000000000000  0.3721945137157121
  0.4744389027431453  0.5511221945137166  0.3721945137157121
  0.3721945137157121  0.6022443890274332  0.5255610972568547
  0.3721945137157121  0.5511221945137166  0.5766832917705713
  0.4233167082294287  0.6022443890274332  0.5766832917705713
  0.3721945137157121  0.5000000000000000  0.6278054862842879
  0.4233167082294287  0.5511221945137166  0.6278054862842879
  0.4744389027431453  0.6022443890274332  0.6278054862842879
  0.4233167082294287  0.6533665835411497  0.5255610972568547
  0.4744389027431453  0.6533665835411497  0.4744389027431453
  0.4744389027431453  0.6533665835411497  0.5766832917705713
  0.4233167082294287  0.5000000000000000  0.6789276807980045
  0.5255610972568547  0.5000000000000000  0.6789276807980045
  0.4744389027431453  0.4488778054862834  0.6789276807980045
  0.4744389027431453  0.5511221945137166  0.6789276807980045
  0.3210723192019955  0.4488778054862834  0.5255610972568547
  0.3210723192019955  0.5511221945137166  0.5255610972568547
  0.3210723192019955  0.5000000000000000  0.5766832917705713
  0.3210723192019955  0.5000000000000000  0.4744389027431453
  0.6789276807980045  0.5000000000000000  0.5255610972568547
  0.6278054862842879  0.3977556109725668  0.4744389027431453
  0.6278054862842879  0.4488778054862834  0.4233167082294287
  0.5766832917705713  0.3977556109725668  0.4233167082294287
  0.5766832917705713  0.4488778054862834  0.3721945137157121
  0.5255610972568547  0.3977556109725668  0.3721945137157121
  0.5766832917705713  0.3466334164588503  0.4744389027431453
  0.5255610972568547  0.3466334164588503  0.4233167082294287
  0.6789276807980045  0.4488778054862834  0.4744389027431453
  0.6278054862842879  0.3466334164588503  0.5255610972568547
  0.6278054862842879  0.3977556109725668  0.5766832917705713
  0.5766832917705713  0.3466334164588503  0.5766832917705713
  0.6278054862842879  0.4488778054862834  0.6278054862842879
  0.5766832917705713  0.3977556109725668  0.6278054862842879
  0.5255610972568547  0.3466334164588503  0.6278054862842879
  0.6789276807980045  0.3977556109725668  0.5255610972568547
  0.6789276807980045  0.4488778054862834  0.5766832917705713
  0.5766832917705713  0.4488778054862834  0.6789276807980045
  0.5255610972568547  0.3977556109725668  0.6789276807980045
  0.4744389027431453  0.5000000000000000  0.3210723192019955
  0.5255610972568547  0.4488778054862834  0.3210723192019955
 
  0.00000000E+00  0.00000000E+00  0.00000000E+00
  0.00000000E+00  0.00000000E+00  0.00000000E+00
  0.00000000E+00  0.00000000E+00  0.00000000E+00
  0.00000000E+00  0.00000000E+00  0.00000000E+00
  0.00000000E+00  0.00000000E+00  0.00000000E+00
  0.00000000E+00  0.00000000E+00  0.00000000E+00
  0.00000000E+00  0.00000000E+00  0.00000000E+00
  0.00000000E+00  0.00000000E+00  0.00000000E+00
  0.00000000E+00  0.00000000E+00  0.00000000E+00
  0.00000000E+00  0.00000000E+00  0.00000000E+00
  0.00000000E+00  0.00000000E+00  0.00000000E+00
  0.00000000E+00  0.00000000E+00  0.00000000E+00
  0.00000000E+00  0.00000000E+00  0.00000000E+00
  0.00000000E+00  0.00000000E+00  0.00000000E+00
  0.00000000E+00  0.00000000E+00  0.00000000E+00
  0.00000000E+00  0.00000000E+00  0.00000000E+00
  0.00000000E+00  0.00000000E+00  0.00000000E+00
  0.00000000E+00  0.00000000E+00  0.00000000E+00
  0.00000000E+00  0.00000000E+00  0.00000000E+00
  0.00000000E+00  0.00000000E+00  0.00000000E+00
  0.00000000E+00  0.00000000E+00  0.00000000E+00
  0.00000000E+00  0.00000000E+00  0.00000000E+00
  0.00000000E+00  0.00000000E+00  0.00000000E+00
  0.00000000E+00  0.00000000E+00  0.00000000E+00
  0.00000000E+00  0.00000000E+00  0.00000000E+00
  0.00000000E+00  0.00000000E+00  0.00000000E+00
  0.00000000E+00  0.00000000E+00  0.00000000E+00
  0.00000000E+00  0.00000000E+00  0.00000000E+00
  0.00000000E+00  0.00000000E+00  0.00000000E+00
  0.00000000E+00  0.00000000E+00  0.00000000E+00
  0.00000000E+00  0.00000000E+00  0.00000000E+00
  0.00000000E+00  0.00000000E+00  0.00000000E+00
  0.00000000E+00  0.00000000E+00  0.00000000E+00
  0.00000000E+00  0.00000000E+00  0.00000000E+00
  0.00000000E+00  0.00000000E+00  0.00000000E+00
  0.00000000E+00  0.00000000E+00  0.00000000E+00
  0.00000000E+00  0.00000000E+00  0.00000000E+00
  0.00000000E+00  0.00000000E+00  0.00000000E+00
  0.00000000E+00  0.00000000E+00  0.00000000E+00
  0.00000000E+00  0.00000000E+00  0.00000000E+00
  0.00000000E+00  0.00000000E+00  0.00000000E+00
  0.00000000E+00  0.00000000E+00  0.00000000E+00
  0.00000000E+00  0.00000000E+00  0.00000000E+00
  0.00000000E+00  0.00000000E+00  0.00000000E+00
  0.00000000E+00  0.00000000E+00  0.00000000E+00
  0.00000000E+00  0.00000000E+00  0.00000000E+00
  0.00000000E+00  0.00000000E+00  0.00000000E+00
  0.00000000E+00  0.00000000E+00  0.00000000E+00
  0.00000000E+00  0.00000000E+00  0.00000000E+00
  0.00000000E+00  0.00000000E+00  0.00000000E+00
  0.00000000E+00  0.00000000E+00  0.00000000E+00
  0.00000000E+00  0.00000000E+00  0.00000000E+00
  0.00000000E+00  0.00000000E+00  0.00000000E+00
  0.00000000E+00  0.00000000E+00  0.00000000E+00
  0.00000000E+00  0.00000000E+00  0.00000000E+00
  0.00000000E+00  0.00000000E+00  0.00000000E+00
  0.00000000E+00  0.00000000E+00  0.00000000E+00
  0.00000000E+00  0.00000000E+00  0.00000000E+00
  0.00000000E+00  0.00000000E+00  0.00000000E+00
  0.00000000E+00  0.00000000E+00  0.00000000E+00
  0.00000000E+00  0.00000000E+00  0.00000000E+00
  0.00000000E+00  0.00000000E+00  0.00000000E+00
  0.00000000E+00  0.00000000E+00  0.00000000E+00
  0.00000000E+00  0.00000000E+00  0.00000000E+00
  0.00000000E+00  0.00000000E+00  0.00000000E+00
  0.00000000E+00  0.00000000E+00  0.00000000E+00
  0.00000000E+00  0.00000000E+00  0.00000000E+00
  0.00000000E+00  0.00000000E+00  0.00000000E+00
  0.00000000E+00  0.00000000E+00  0.00000000E+00
  0.00000000E+00  0.00000000E+00  0.00000000E+00
  0.00000000E+00  0.00000000E+00  0.00000000E+00
  0.00000000E+00  0.00000000E+00  0.00000000E+00
  0.00000000E+00  0.00000000E+00  0.00000000E+00
  0.00000000E+00  0.00000000E+00  0.00000000E+00
  0.00000000E+00  0.00000000E+00  0.00000000E+00
  0.00000000E+00  0.00000000E+00  0.00000000E+00
  0.00000000E+00  0.00000000E+00  0.00000000E+00
  0.00000000E+00  0.00000000E+00  0.00000000E+00
  0.00000000E+00  0.00000000E+00  0.00000000E+00
  0.00000000E+00  0.00000000E+00  0.00000000E+00
  0.00000000E+00  0.00000000E+00  0.00000000E+00
  0.00000000E+00  0.00000000E+00  0.00000000E+00
  0.00000000E+00  0.00000000E+00  0.00000000E+00
  0.00000000E+00  0.00000000E+00  0.00000000E+00
  0.00000000E+00  0.00000000E+00  0.00000000E+00
  0.00000000E+00  0.00000000E+00  0.00000000E+00
  0.00000000E+00  0.00000000E+00  0.00000000E+00
  0.00000000E+00  0.00000000E+00  0.00000000E+00
  0.00000000E+00  0.00000000E+00  0.00000000E+00
  0.00000000E+00  0.00000000E+00  0.00000000E+00
  0.00000000E+00  0.00000000E+00  0.00000000E+00
  0.00000000E+00  0.00000000E+00  0.00000000E+00
  0.00000000E+00  0.00000000E+00  0.00000000E+00
  0.00000000E+00  0.00000000E+00  0.00000000E+00
  0.00000000E+00  0.00000000E+00  0.00000000E+00
  0.00000000E+00  0.00000000E+00  0.00000000E+00
  0.00000000E+00  0.00000000E+00  0.00000000E+00
  0.00000000E+00  0.00000000E+00  0.00000000E+00
  0.00000000E+00  0.00000000E+00  0.00000000E+00
  0.00000000E+00  0.00000000E+00  0.00000000E+00
