POSCAR centered in cell
1.0
25.1000000000 0.0000000000 0.0000000000
0.0000000000 25.1000000000 0.0000000000
0.0000000000 0.0000000000 25.1000000000
Ag
13
Cartesian
12.5500000000 12.5500000000 12.5500000000
14.6000000000 12.5500000000 10.5000000000
14.6000000000 10.5000000000 12.5500000000
14.6000000000 14.6000000000 12.5500000000
14.6000000000 12.5500000000 14.6000000000
16.6500000000 12.5500000000 12.5500000000
10.5000000000 12.5500000000 10.5000000000
12.5500000000 14.6000000000 10.5000000000
12.5500000000 10.5000000000 10.5000000000
12.5500000000 12.5500000000 8.4500000000
10.5000000000 10.5000000000 12.5500000000
12.5500000000 10.5000000000 14.6000000000
12.5500000000 8.4500000000 12.5500000000
