Ag                                      
   1.00000000000000     
    40.7000000000000028    0.0000000000000000    0.0000000000000000
     0.0000000000000000   40.7000000000000028    0.0000000000000000
     0.0000000000000000    0.0000000000000000   40.7000000000000028
   Ag
    50
Direct
  0.4748157248157270  0.5251842751842730  0.5251842751842730
  0.5251842751842730  0.5251842751842730  0.4748157248157270
  0.5251842751842730  0.4748157248157270  0.5251842751842730
  0.5251842751842730  0.5755528255528262  0.5251842751842730
  0.5251842751842730  0.5251842751842730  0.5755528255528262
  0.4244471744471738  0.5251842751842730  0.4748157248157270
  0.4748157248157270  0.5755528255528262  0.4748157248157270
  0.4748157248157270  0.4748157248157270  0.4748157248157270
  0.4244471744471738  0.4748157248157270  0.5251842751842730
  0.4748157248157270  0.4748157248157270  0.5755528255528262
  0.4748157248157270  0.5251842751842730  0.4244471744471738
  0.4748157248157270  0.4244471744471738  0.5251842751842730
  0.5755528255528262  0.5251842751842730  0.5251842751842730
  0.5755528255528262  0.4748157248157270  0.4748157248157270
  0.5251842751842730  0.4748157248157270  0.4244471744471738
  0.5251842751842730  0.4244471744471738  0.4748157248157270
  0.4244471744471738  0.5755528255528262  0.5251842751842730
  0.4244471744471738  0.5251842751842730  0.5755528255528262
  0.4748157248157270  0.5755528255528262  0.5755528255528262
  0.5755528255528262  0.5755528255528262  0.4748157248157270
  0.5251842751842730  0.5755528255528262  0.4244471744471738
  0.5755528255528262  0.4244471744471738  0.5251842751842730
  0.5755528255528262  0.4748157248157270  0.5755528255528262
  0.5251842751842730  0.4244471744471738  0.5755528255528262
  0.4748157248157270  0.6259213759213793  0.5251842751842730
  0.5251842751842730  0.6259213759213793  0.4748157248157270
  0.6259213759213793  0.4748157248157270  0.5251842751842730
  0.4748157248157270  0.5251842751842730  0.6259213759213793
  0.5251842751842730  0.4748157248157270  0.6259213759213793
  0.5755528255528262  0.6259213759213793  0.5251842751842730
  0.5755528255528262  0.5755528255528262  0.5755528255528262
  0.5251842751842730  0.6259213759213793  0.5755528255528262
  0.5755528255528262  0.5251842751842730  0.6259213759213793
  0.5251842751842730  0.5755528255528262  0.6259213759213793
  0.6259213759213793  0.5251842751842730  0.5755528255528262
  0.5755528255528262  0.5251842751842730  0.4244471744471738
  0.6259213759213793  0.5755528255528262  0.5251842751842730
  0.6259213759213793  0.5251842751842730  0.4748157248157270
  0.3740786240786207  0.5251842751842730  0.5251842751842730
  0.3740786240786207  0.4748157248157270  0.4748157248157270
  0.4244471744471738  0.4748157248157270  0.4244471744471738
  0.4244471744471738  0.4244471744471738  0.4748157248157270
  0.4748157248157270  0.4244471744471738  0.4244471744471738
  0.5251842751842730  0.5251842751842730  0.3740786240786207
  0.4748157248157270  0.4748157248157270  0.3740786240786207
  0.5251842751842730  0.3740786240786207  0.5251842751842730
  0.4748157248157270  0.3740786240786207  0.4748157248157270
  0.3740786240786207  0.4244471744471738  0.4244471744471738
  0.4244471744471738  0.4244471744471738  0.3740786240786207
  0.4244471744471738  0.3740786240786207  0.4244471744471738
 
  0.00000000E+00  0.00000000E+00  0.00000000E+00
  0.00000000E+00  0.00000000E+00  0.00000000E+00
  0.00000000E+00  0.00000000E+00  0.00000000E+00
  0.00000000E+00  0.00000000E+00  0.00000000E+00
  0.00000000E+00  0.00000000E+00  0.00000000E+00
  0.00000000E+00  0.00000000E+00  0.00000000E+00
  0.00000000E+00  0.00000000E+00  0.00000000E+00
  0.00000000E+00  0.00000000E+00  0.00000000E+00
  0.00000000E+00  0.00000000E+00  0.00000000E+00
  0.00000000E+00  0.00000000E+00  0.00000000E+00
  0.00000000E+00  0.00000000E+00  0.00000000E+00
  0.00000000E+00  0.00000000E+00  0.00000000E+00
  0.00000000E+00  0.00000000E+00  0.00000000E+00
  0.00000000E+00  0.00000000E+00  0.00000000E+00
  0.00000000E+00  0.00000000E+00  0.00000000E+00
  0.00000000E+00  0.00000000E+00  0.00000000E+00
  0.00000000E+00  0.00000000E+00  0.00000000E+00
  0.00000000E+00  0.00000000E+00  0.00000000E+00
  0.00000000E+00  0.00000000E+00  0.00000000E+00
  0.00000000E+00  0.00000000E+00  0.00000000E+00
  0.00000000E+00  0.00000000E+00  0.00000000E+00
  0.00000000E+00  0.00000000E+00  0.00000000E+00
  0.00000000E+00  0.00000000E+00  0.00000000E+00
  0.00000000E+00  0.00000000E+00  0.00000000E+00
  0.00000000E+00  0.00000000E+00  0.00000000E+00
  0.00000000E+00  0.00000000E+00  0.00000000E+00
  0.00000000E+00  0.00000000E+00  0.00000000E+00
  0.00000000E+00  0.00000000E+00  0.00000000E+00
  0.00000000E+00  0.00000000E+00  0.00000000E+00
  0.00000000E+00  0.00000000E+00  0.00000000E+00
  0.00000000E+00  0.00000000E+00  0.00000000E+00
  0.00000000E+00  0.00000000E+00  0.00000000E+00
  0.00000000E+00  0.00000000E+00  0.00000000E+00
  0.00000000E+00  0.00000000E+00  0.00000000E+00
  0.00000000E+00  0.00000000E+00  0.00000000E+00
  0.00000000E+00  0.00000000E+00  0.00000000E+00
  0.00000000E+00  0.00000000E+00  0.00000000E+00
  0.00000000E+00  0.00000000E+00  0.00000000E+00
  0.00000000E+00  0.00000000E+00  0.00000000E+00
  0.00000000E+00  0.00000000E+00  0.00000000E+00
  0.00000000E+00  0.00000000E+00  0.00000000E+00
  0.00000000E+00  0.00000000E+00  0.00000000E+00
  0.00000000E+00  0.00000000E+00  0.00000000E+00
  0.00000000E+00  0.00000000E+00  0.00000000E+00
  0.00000000E+00  0.00000000E+00  0.00000000E+00
  0.00000000E+00  0.00000000E+00  0.00000000E+00
  0.00000000E+00  0.00000000E+00  0.00000000E+00
  0.00000000E+00  0.00000000E+00  0.00000000E+00
  0.00000000E+00  0.00000000E+00  0.00000000E+00
  0.00000000E+00  0.00000000E+00  0.00000000E+00
