Ag 
 1.0000000000000000
    40.7000000000000028    0.0000000000000000    0.0000000000000000
     0.0000000000000000   40.7000000000000028    0.0000000000000000
     0.0000000000000000    0.0000000000000000   40.7000000000000028
  50
Cartesian
 19.3250000000000028 21.3750000000000036 21.3750000000000036
 21.3750000000000000 21.3750000000000036 19.3250000000000028
 21.3750000000000000 19.3250000000000028 21.3750000000000036
 21.3750000000000000 23.4250000000000043 21.3750000000000036
 21.3750000000000000 21.3750000000000036 23.4250000000000043
 17.2750000000000021 21.3750000000000036 19.3250000000000028
 19.3250000000000028 23.4250000000000043 19.3250000000000028
 19.3250000000000028 19.3250000000000028 19.3250000000000028
 17.2750000000000021 19.3250000000000028 21.3750000000000036
 19.3250000000000028 19.3250000000000028 23.4250000000000043
 19.3250000000000028 21.3750000000000036 17.2750000000000021
 19.3250000000000028 17.2750000000000021 21.3750000000000036
 23.4250000000000043 21.3750000000000036 21.3750000000000036
 23.4250000000000043 19.3250000000000028 19.3250000000000028
 21.3750000000000000 19.3250000000000028 17.2750000000000021
 21.3750000000000000 17.2750000000000021 19.3250000000000028
 17.2750000000000021 23.4250000000000043 21.3750000000000036
 17.2750000000000021 21.3750000000000036 23.4250000000000043
 19.3250000000000028 23.4250000000000043 23.4250000000000043
 23.4250000000000043 23.4250000000000043 19.3250000000000028
 21.3750000000000000 23.4250000000000043 17.2750000000000021
 23.4250000000000043 17.2750000000000021 21.3750000000000036
 23.4250000000000043 19.3250000000000028 23.4250000000000043
 21.3750000000000000 17.2750000000000021 23.4250000000000043
 19.3250000000000028 25.4750000000000014 21.3750000000000036
 21.3750000000000000 25.4750000000000014 19.3250000000000028
 25.4750000000000014 19.3250000000000028 21.3750000000000036
 19.3250000000000028 21.3750000000000036 25.4750000000000014
 21.3750000000000000 19.3250000000000028 25.4750000000000014
 23.4250000000000043 25.4750000000000014 21.3750000000000036
 23.4250000000000043 23.4250000000000043 23.4250000000000043
 21.3750000000000000 25.4750000000000014 23.4250000000000043
 23.4250000000000043 21.3750000000000036 25.4750000000000014
 21.3750000000000000 23.4250000000000043 25.4750000000000014
 25.4750000000000014 21.3750000000000036 23.4250000000000043
 23.4250000000000043 21.3750000000000036 17.2750000000000021
 25.4750000000000014 23.4250000000000043 21.3750000000000036
 25.4750000000000014 21.3750000000000036 19.3250000000000028
 15.2250000000000014 21.3750000000000036 21.3750000000000036
 15.2250000000000014 19.3250000000000028 19.3250000000000028
 17.2750000000000021 19.3250000000000028 17.2750000000000021
 17.2750000000000021 17.2750000000000021 19.3250000000000028
 19.3250000000000028 17.2750000000000021 17.2750000000000021
 21.3750000000000000 21.3750000000000036 15.2250000000000032
 19.3250000000000028 19.3250000000000028 15.2250000000000032
 21.3750000000000000 15.2250000000000032 21.3750000000000036
 19.3250000000000028 15.2250000000000032 19.3250000000000028
 15.2250000000000014 17.2750000000000021 17.2750000000000021
 17.2750000000000021 17.2750000000000021 15.2250000000000032
 17.2750000000000021 15.2250000000000032 17.2750000000000021
